(set-logic HORN)
(declare-fun state (Int (Array Int Int) (Array Int Int) (Array Int Int) (Array Int Int) Int Int (Array Int Int) (Array Int Int) Int Int Int Int Int Int Int Int Int Int Int Int Int Int Int Int Int Int Int Int Int Int Int Int Int Bool Bool Bool Bool Bool Bool (Array Int Int)) Bool)
(assert (forall ((|A_27| Int) (|J1_13| (Array Int Int)) (|C_27| (Array Int Int)) (|D_27| (Array Int Int)) (|E_27| (Array Int Int)) (|F_27| Int) (|G_27| Int) (|H_27| (Array Int Int)) (|I_27| (Array Int Int)) (|J_27| Int) (|K_27| Int) (|L_27| Int) (|M_27| Int) (|K1_8| Int) (|O_27| Int) (|L1_5| Int) (|Q_27| Int) (|R_27| Int) (|S_27| Int) (|T_27| Int) (|U_27| Int) (|V_27| Int) (|M1_2| Int) (|X_27| Int) (|N1_0| Int) (|Z_27| Int) (|A1_27| Int) (|B1_27| Int) (|C1_27| Int) (|O1_0| Int) (|E1_27| Int) (|P1_0| Int) (|Q1_0| Int) (|H1_27| Int) (|I1_27| Bool) (|.loc.6| Bool) (|.loc.7| Bool) (|.loc.8| Bool) (|.loc.9| Bool) (|.loc.10| Bool) (|J1_0| (Array Int Int)) (|.x.1274| Int) (|.x.1272| (Array Int Int)) (|.x.1270| Int) (|.x.1268| (Array Int Int)) (|.x.1264| Int) (|.x.1266| (Array Int Int)) (|.x.1285| Int) (|.x.1288| Int) (|.x.1298| Bool) (|.x.1265| (Array Int Int)) (|.x.1281| Int) (|.x.1290| Int) (|.x.1291| Int) (|.x.1292| Int) (|.x.1294| Int) (|.x.1277| Int) (|.x.1279| Int) (|.x.1286| Int) (|.x.1293| Int) (|.x.1295| Int) (|.x.1296| Int) (|.x.1276| Int) (|.loc.13| Bool) (|.loc.15| Bool) (|.loc.11| Bool) (|.loc.12| Bool) (|.x.1284| Int) (|.x.1287| Int) (|.loc.14| Bool) (|.x.1289| Int) (|.x.1267| (Array Int Int)) (|.x.1297| Int) (|.x.1271| (Array Int Int)) (|.x.1269| Int) (|.x.1273| Int) (|.x.1275| Int) (|.x.1278| Int) (|.x.1280| Int) (|.x.1282| Int) (|.x.1283| Int) (|.xtv.1| (Array Int Int))) (=> (and (and (and .loc.9 (and .loc.8 (and .loc.6 (not .loc.7)))) (not .loc.10)) (and (and (and (and (and (= D_27 E_27) (not I1_27)) (= J_27 K_27)) (= F_27 G_27)) (= H_27 I_27)) (= J1_13 C_27))) (state |A_27| |J1_13| |C_27| |D_27| |E_27| |F_27| |G_27| |H_27| |I_27| |J_27| |K_27| |L_27| |M_27| |K1_8| |O_27| |L1_5| |Q_27| |R_27| |S_27| |T_27| |U_27| |V_27| |M1_2| |X_27| |N1_0| |Z_27| |A1_27| |B1_27| |C1_27| |O1_0| |E1_27| |P1_0| |Q1_0| |H1_27| |I1_27| |.loc.6| |.loc.7| |.loc.8| |.loc.9| |.loc.10| |J1_0|))))
(assert (forall ((|A_27| Int) (|J1_13| (Array Int Int)) (|C_27| (Array Int Int)) (|D_27| (Array Int Int)) (|E_27| (Array Int Int)) (|F_27| Int) (|G_27| Int) (|H_27| (Array Int Int)) (|I_27| (Array Int Int)) (|J_27| Int) (|K_27| Int) (|L_27| Int) (|M_27| Int) (|K1_8| Int) (|O_27| Int) (|L1_5| Int) (|Q_27| Int) (|R_27| Int) (|S_27| Int) (|T_27| Int) (|U_27| Int) (|V_27| Int) (|M1_2| Int) (|X_27| Int) (|N1_0| Int) (|Z_27| Int) (|A1_27| Int) (|B1_27| Int) (|C1_27| Int) (|O1_0| Int) (|E1_27| Int) (|P1_0| Int) (|Q1_0| Int) (|H1_27| Int) (|I1_27| Bool) (|.loc.6| Bool) (|.loc.7| Bool) (|.loc.8| Bool) (|.loc.9| Bool) (|.loc.10| Bool) (|J1_0| (Array Int Int)) (|.x.1274| Int) (|.x.1272| (Array Int Int)) (|.x.1270| Int) (|.x.1268| (Array Int Int)) (|.x.1264| Int) (|.x.1266| (Array Int Int)) (|.x.1285| Int) (|.x.1288| Int) (|.x.1298| Bool) (|.x.1265| (Array Int Int)) (|.x.1281| Int) (|.x.1290| Int) (|.x.1291| Int) (|.x.1292| Int) (|.x.1294| Int) (|.x.1277| Int) (|.x.1279| Int) (|.x.1286| Int) (|.x.1293| Int) (|.x.1295| Int) (|.x.1296| Int) (|.x.1276| Int) (|.loc.13| Bool) (|.loc.15| Bool) (|.loc.11| Bool) (|.loc.12| Bool) (|.x.1284| Int) (|.x.1287| Int) (|.loc.14| Bool) (|.x.1289| Int) (|.x.1267| (Array Int Int)) (|.x.1297| Int) (|.x.1271| (Array Int Int)) (|.x.1269| Int) (|.x.1273| Int) (|.x.1275| Int) (|.x.1278| Int) (|.x.1280| Int) (|.x.1282| Int) (|.x.1283| Int) (|.xtv.1| (Array Int Int))) (=> (and (state |A_27| |J1_13| |C_27| |D_27| |E_27| |F_27| |G_27| |H_27| |I_27| |J_27| |K_27| |L_27| |M_27| |K1_8| |O_27| |L1_5| |Q_27| |R_27| |S_27| |T_27| |U_27| |V_27| |M1_2| |X_27| |N1_0| |Z_27| |A1_27| |B1_27| |C1_27| |O1_0| |E1_27| |P1_0| |Q1_0| |H1_27| |I1_27| |.loc.6| |.loc.7| |.loc.8| |.loc.9| |.loc.10| |J1_0|) (let ((.def_51 (not .loc.7))) (let ((.def_55 (not .loc.10))) (let ((.def_101 (= R_27 .x.1281))) (let ((.def_104 (= A1_27 .x.1290))) (let ((.def_107 (= B1_27 .x.1291))) (let ((.def_110 (= C1_27 .x.1292))) (let ((.def_113 (= E1_27 .x.1294))) (let ((.def_115 (= I1_27 .x.1298))) (let ((.def_120 (= .x.1281 0))) (let ((.def_135 (select D_27 L1_5))) (let ((.def_137 (select .def_135 (+ (* 4 M_27) (+ O1_0 (+ (* 4 (* Q_27 X_27)) (* 4 (* U_27 (* Q_27 T_27))))))))) (let ((.def_139 (<= Q_27 M_27))) (let ((.def_140 (not .def_139))) (let ((.def_144 (select D_27 P1_0))) (let ((.def_179 (select (select D_27 M1_2) (+ (* 4 M_27) (+ K1_8 (+ (* 4 (* Q_27 X_27)) (* 4 (* U_27 (* Q_27 T_27))))))))) (let ((.def_182 (or I1_27 (and (and (and (and (and (= .x.1294 .def_137) .def_140) (= .x.1291 (select .def_144 (+ (* 4 M_27) (+ Q1_0 (+ (* 4 (* Q_27 X_27)) (* 4 (* U_27 (* Q_27 T_27))))))))) (= .x.1290 (ite (= (+ .x.1291 (+ (* (- 1) .x.1292) (+ (* (- 1) .x.1294) (+ (* 4294967296 (to_int (+ (* (/ 1 4294967296) (to_real .x.1294)) (* (/ 1 4294967296) (to_real .x.1292))))) (* (- 4294967296) (to_int (* (/ 1 4294967296) (to_real .x.1291)))))))) 0) 1 0))) (= .x.1281 .x.1290)) (= .x.1292 .def_179))))) (let ((.def_184 (= J1_13 .x.1265))) (let ((.def_187 (= K1_8 .x.1277))) (let ((.def_190 (= L1_5 .x.1279))) (let ((.def_192 (= V_27 .x.1285))) (let ((.def_195 (= M1_2 .x.1286))) (let ((.def_197 (= N1_0 .x.1288))) (let ((.def_200 (= O1_0 .x.1293))) (let ((.def_203 (= P1_0 .x.1295))) (let ((.def_206 (= Q1_0 .x.1296))) (let ((.def_210 (= M_27 .x.1276))) (let ((.def_217 (not .loc.11))) (let ((.def_222 (= (+ M_27 (* (- 1) .x.1276)) (- 1)))) (let ((.def_224 (and .def_101 .def_104))) (let ((.def_238 (not .loc.15))) (let ((.def_240 (not .loc.13))) (let ((.def_242 (not .loc.6))) (let ((.def_247 (not .loc.12))) (let ((.def_250 (and .def_101 (and I1_27 .def_210)))) (let ((.def_273 (and .def_101 .def_210))) (let ((.def_278 (and .def_115 (and .def_113 (and .def_110 (and .def_107 (and .def_104 .def_273))))))) (let ((.def_295 (<= S_27 U_27))) (let ((.def_296 (or I1_27 .def_295))) (let ((.def_303 (and .loc.6 (and .def_115 (and .def_113 (and .def_110 (and .def_107 .def_224))))))) (let ((.def_304 (and .loc.7 .def_303))) (let ((.def_319 (<= T_27 X_27))) (let ((.def_321 (= .x.1276 0))) (let ((.def_323 (or I1_27 (and (not .def_319) .def_321)))) (let ((.def_326 (not .loc.8))) (let ((.def_328 (= U_27 .x.1284))) (let ((.def_351 (or I1_27 (= (+ U_27 (* (- 1) .x.1284)) (- 1))))) (let ((.def_355 (= X_27 .x.1287))) (let ((.def_357 (and .def_273 .def_328))) (let ((.def_363 (and .loc.7 (and .def_115 (and .def_113 (and .def_110 (and .def_107 (and .def_104 .def_357)))))))) (let ((.def_383 (or I1_27 (= (+ X_27 (* (- 1) .x.1287)) (- 1))))) (let ((.def_450 (= .x.1287 0))) (let ((.def_452 (= .x.1284 0))) (let ((.def_454 (or I1_27 (and (and .def_321 .def_450) .def_452)))) (let ((.def_457 (and .def_101 .def_328))) (let ((.def_462 (and .def_115 (and .def_113 (and .def_110 (and .def_107 (and .def_104 .def_457))))))) (let ((.def_483 (or I1_27 (and .def_450 (and .def_321 (not .def_295)))))) (let ((.def_492 (and .def_115 (and .def_113 (and .def_110 (and .def_107 (and .def_104 (and .def_355 (and .def_250 .def_328))))))))) (let ((.def_493 (and .loc.6 .def_492))) (let ((.def_494 (and .loc.7 .def_493))) (let ((.def_516 (and .def_115 (and .def_113 (and .def_110 (and .def_107 (and .def_104 (and .def_355 .def_357)))))))) (let ((.def_517 (and .loc.6 .def_516))) (let ((.def_518 (and .loc.7 .def_517))) (let ((.def_534 (or I1_27 .def_319))) (let ((.def_570 (or I1_27 .def_139))) (let ((.def_610 (not .loc.9))) (let ((.def_617 (and .def_115 (and .def_113 (and .def_110 (and .def_107 (and .def_104 (and .def_273 .def_355)))))))) (let ((.def_657 (not .loc.14))) (let ((.def_839 (= Z_27 .x.1289))) (let ((.def_841 (= D_27 .x.1267))) (let ((.def_844 (= H1_27 .x.1297))) (let ((.def_851 (and .def_140 .def_222))) (let ((.def_882 (= H_27 .x.1271))) (let ((.def_884 (= F_27 .x.1269))) (let ((.def_887 (= J_27 .x.1273))) (let ((.def_888 (and (and .def_882 .def_884) .def_887))) (let ((.def_890 (= L_27 .x.1275))) (let ((.def_893 (= O_27 .x.1278))) (let ((.def_896 (= Q_27 .x.1280))) (let ((.def_899 (= S_27 .x.1282))) (let ((.def_902 (= T_27 .x.1283))) (let ((.def_950 (store J1_0 .x.1279 1))) (let ((.def_951 (store .def_950 .x.1286 1))) (let ((.def_1007 (and .loc.6 (and .def_115 (and .def_844 (and .def_113 (and .def_110 (and .def_107 (and .def_104 (and .def_839 (and .def_355 (and .def_328 (and .def_902 (and .def_899 (and .def_101 (and .def_896 (and .def_893 (and .def_210 (and .def_890 (and .def_887 (and .def_882 (and .def_884 (and I1_27 .def_841))))))))))))))))))))))) (let ((.def_1030 (and .def_890 (and .def_887 (and .def_882 (and .def_841 .def_884)))))) (let ((.def_1037 (and .def_328 (and .def_902 (and .def_899 (and .def_101 (and .def_896 (and .def_893 (and .def_210 .def_1030))))))))) (let ((.def_1046 (and .loc.6 (and .def_115 (and .def_844 (and .def_113 (and .def_110 (and .def_107 (and .def_104 (and .def_839 (and .def_355 .def_1037))))))))))) (let ((.def_1072 (and .def_328 (and .def_902 (and .def_899 (and .def_101 (and .def_896 (and .def_893 .def_1030)))))))) (let ((.def_1082 (and .loc.7 (and .loc.6 (and .def_115 (and .def_844 (and .def_113 (and .def_110 (and .def_107 (and .def_104 (and .def_839 (and .def_355 .def_1072)))))))))))) (let ((.def_1198 (store D_27 L1_5 (store .def_135 (+ (* 4 M_27) (+ O1_0 (+ (* 4 (* Q_27 X_27)) (* 4 (* U_27 (* Q_27 T_27)))))) L_27)))) (and (and (= K_27 .x.1274) (and (= I_27 .x.1272) (and (= G_27 .x.1270) (and (= E_27 .x.1268) (and (= A_27 .x.1264) (= C_27 .x.1266)))))) (or (or (or (or (or (or (or (or (or (or (and (or (and (or (or (or (or (or (or (or (or (or (and (or (or (and (or (or (or (or (or (or (or (or (or (or (or (and (or (and (or (or (or (and (or (and (or (and .loc.10 (and .loc.7 (and (or (= .x.1285 .x.1288) .x.1298) (and (and (and (and (and (and (or I1_27 (and (= .x.1288 0) (= (store (store (store J1_13 L1_5 0) M1_2 0) P1_0 0) .x.1265))) .def_101) .def_104) .def_107) .def_110) .def_113) .def_115)))) (and (and (and (and (and (and (and (and (and (and (and (or I1_27 .def_120) (and .def_51 (and .def_55 .x.1298))) .def_182) .def_184) .def_187) .def_190) .def_192) .def_195) .def_197) .def_200) .def_203) .def_206)) (and (and (and (and .loc.6 .def_210) .loc.13) .loc.15) .def_217)) (and (or I1_27 .def_222) (and (and (and (and .def_206 (and .def_203 (and .def_200 (and .def_197 (and .def_195 (and .def_192 (and .def_190 (and .def_187 (and .def_184 (and .def_51 (and .def_55 (and .loc.11 (and .def_115 .def_224))))))))))))) .def_238) .def_240) .def_242))) .def_247) (and .def_242 (and .def_240 (and .def_206 (and .def_203 (and .def_200 (and .def_197 (and .def_195 (and .def_192 (and .def_190 (and .def_187 (and .def_184 (and .loc.15 (and .loc.12 (and .loc.11 (and .loc.10 (and .loc.7 (and .def_115 (and .def_113 (and .def_110 (and .def_107 (and .def_104 .def_250)))))))))))))))))))))) (and (and .def_242 (and .def_240 (and .def_206 (and .def_203 (and .def_200 (and .def_197 (and .def_195 (and .def_192 (and .def_190 (and .def_187 (and .def_184 (and .loc.15 (and .loc.12 (and .loc.11 (and .loc.10 (and .loc.7 .def_278)))))))))))))))) .def_296)) (and (and .def_240 (and .def_238 (and .def_206 (and .def_203 (and .def_200 (and .def_197 (and .def_195 (and .def_192 (and .def_190 (and .def_187 (and .def_184 (and .def_55 (and .def_247 (and .loc.11 .def_304)))))))))))))) .def_323)) (and .def_326 .def_328)) (and (and .def_242 (and .def_240 (and .def_206 (and .def_203 (and .def_200 (and .def_197 (and .def_195 (and .def_192 (and .def_190 (and .def_187 (and .def_184 (and .def_51 (and .def_55 (and .def_217 (and .loc.15 (and .loc.12 (and .loc.8 .def_278))))))))))))))))) .def_351)) .def_355) (and (and .def_242 (and .def_240 (and .def_238 (and .def_206 (and .def_203 (and .def_200 (and .def_197 (and .def_195 (and .def_192 (and .def_190 (and .def_187 (and .def_184 (and .def_55 (and .loc.12 (and .loc.11 (and .def_326 .def_363)))))))))))))))) .def_383)) (and (or .x.1298 (not .def_120)) (and .def_240 (and .def_238 (and .def_206 (and .def_203 (and .def_200 (and .def_197 (and .def_195 (and .def_192 (and .def_190 (and .def_187 (and .def_184 (and .def_182 (and .def_51 (and .def_55 (and .def_247 (and .def_217 (and .def_326 (and .loc.6 (and .def_115 (and .def_355 (and .def_210 .def_328))))))))))))))))))))))) (and .def_240 (and .def_238 (and .def_206 (and .def_203 (and .def_200 (and .def_197 (and .def_195 (and .def_192 (and .def_190 (and .def_187 (and .def_184 (and .def_182 (and .def_51 (and .def_55 (and .def_247 (and .def_217 (and .def_326 (and .loc.6 (and .def_355 (and .def_328 (and .def_210 (and I1_27 .x.1298))))))))))))))))))))))) (and (and .def_240 (and .def_206 (and .def_203 (and .def_200 (and .def_197 (and .def_195 (and .def_192 (and .def_190 (and .def_187 (and .def_184 (and .def_51 (and .def_217 (and .loc.15 (and .loc.12 (and .def_326 (and .loc.10 .def_303)))))))))))))))) .def_454)) (and (and .def_242 (and .def_240 (and .def_238 (and .def_206 (and .def_203 (and .def_200 (and .def_197 (and .def_195 (and .def_192 (and .def_190 (and .def_187 (and .def_184 (and .loc.12 (and .loc.11 (and .def_326 (and .loc.10 (and .loc.7 .def_462))))))))))))))))) .def_483)) (and .def_238 (and .def_206 (and .def_203 (and .def_200 (and .def_197 (and .def_195 (and .def_192 (and .def_190 (and .def_187 (and .def_184 (and .def_55 (and .def_247 (and .def_217 (and .loc.13 (and .def_326 .def_494)))))))))))))))) (and (and .def_238 (and .def_206 (and .def_203 (and .def_200 (and .def_197 (and .def_195 (and .def_192 (and .def_190 (and .def_187 (and .def_184 (and .def_55 (and .def_247 (and .def_217 (and .loc.13 (and .def_326 .def_518))))))))))))))) .def_534)) (and .def_240 (and .def_238 (and .def_206 (and .def_203 (and .def_200 (and .def_197 (and .def_195 (and .def_192 (and .def_190 (and .def_187 (and .def_184 (and .def_51 (and .def_55 (and .def_217 (and .loc.12 (and .def_326 .def_493))))))))))))))))) (and (and .def_240 (and .def_238 (and .def_206 (and .def_203 (and .def_200 (and .def_197 (and .def_195 (and .def_192 (and .def_190 (and .def_187 (and .def_184 (and .def_51 (and .def_55 (and .def_217 (and .loc.12 (and .def_326 .def_517)))))))))))))))) .def_570)) (and .def_242 (and .def_240 (and .def_206 (and .def_203 (and .def_200 (and .def_197 (and .def_195 (and .def_192 (and .def_190 (and .def_187 (and .def_184 (and .def_51 (and .def_247 (and .loc.15 (and .loc.11 (and .def_326 (and .loc.10 .def_492)))))))))))))))))) (and .def_296 (and .def_242 (and .def_240 (and .def_206 (and .def_203 (and .def_200 (and .def_197 (and .def_195 (and .def_192 (and .def_190 (and .def_187 (and .def_184 (and .def_51 (and .def_247 (and .loc.15 (and .loc.11 (and .def_326 (and .loc.10 .def_516))))))))))))))))))) .def_610) (and .def_351 (and .def_242 (and .def_240 (and .def_206 (and .def_203 (and .def_200 (and .def_197 (and .def_195 (and .def_192 (and .def_190 (and .def_187 (and .def_184 (and .def_51 (and .def_55 (and .def_247 (and .def_217 (and .loc.15 (and .def_326 (and .loc.9 .def_617)))))))))))))))))))) (and .def_454 (and .def_240 (and .def_206 (and .def_203 (and .def_200 (and .def_197 (and .def_195 (and .def_192 (and .def_190 (and .def_187 (and .def_184 (and .def_55 (and .def_247 (and .def_217 (and .loc.15 (and .loc.9 (and .loc.8 .def_304)))))))))))))))))) .def_657) (and .def_240 (and .def_238 (and .def_206 (and .def_203 (and .def_200 (and .def_197 (and .def_195 (and .def_192 (and .def_190 (and .def_187 (and .def_184 (and .def_55 (and .def_247 (and .def_217 (and .loc.14 (and .def_610 (and .loc.8 .def_494)))))))))))))))))) (and .def_534 (and .def_240 (and .def_238 (and .def_206 (and .def_203 (and .def_200 (and .def_197 (and .def_195 (and .def_192 (and .def_190 (and .def_187 (and .def_184 (and .def_55 (and .def_247 (and .def_217 (and .loc.14 (and .def_610 (and .loc.8 .def_518))))))))))))))))))) (and .def_383 (and .def_242 (and .def_238 (and .def_206 (and .def_203 (and .def_200 (and .def_197 (and .def_195 (and .def_192 (and .def_190 (and .def_187 (and .def_184 (and .def_55 (and .def_657 (and .loc.13 (and .loc.12 (and .loc.11 (and .def_610 (and .loc.8 .def_363)))))))))))))))))))) (and .def_242 (and .def_238 (and .def_206 (and .def_203 (and .def_200 (and .def_197 (and .def_195 (and .def_192 (and .def_190 (and .def_187 (and .def_184 (and .def_55 (and .loc.14 (and .loc.13 (and .loc.12 (and .loc.11 (and .loc.9 (and .loc.8 (and .loc.7 .def_492)))))))))))))))))))) (and .def_296 (and .def_242 (and .def_238 (and .def_206 (and .def_203 (and .def_200 (and .def_197 (and .def_195 (and .def_192 (and .def_190 (and .def_187 (and .def_184 (and .def_55 (and .loc.14 (and .loc.13 (and .loc.12 (and .loc.11 (and .loc.9 (and .loc.8 (and .loc.7 .def_516))))))))))))))))))))) (and .def_483 (and .def_242 (and .def_238 (and .def_206 (and .def_203 (and .def_200 (and .def_197 (and .def_195 (and .def_192 (and .def_190 (and .def_187 (and .def_184 (and .def_51 (and .def_657 (and .loc.13 (and .loc.12 (and .loc.11 (and .def_610 (and .def_326 (and .loc.10 .def_462))))))))))))))))))))) (and .def_351 (and .def_242 (and .def_238 (and .def_206 (and .def_203 (and .def_200 (and .def_197 (and .def_195 (and .def_192 (and .def_190 (and .def_187 (and .def_184 (and .def_51 (and .def_55 (and .def_217 (and .loc.14 (and .loc.13 (and .loc.12 (and .loc.9 (and .loc.8 .def_617))))))))))))))))))))) (and .def_238 (and .def_206 (and .def_203 (and .def_200 (and .def_197 (and .def_195 (and .def_192 (and .def_190 (and .def_187 (and .def_184 (and .def_51 (and .def_55 (and .def_657 (and .def_217 (and .loc.13 (and .loc.12 (and .def_610 (and .loc.8 .def_493))))))))))))))))))) (and .def_570 (and .def_238 (and .def_206 (and .def_203 (and .def_200 (and .def_197 (and .def_195 (and .def_192 (and .def_190 (and .def_187 (and .def_184 (and .def_51 (and .def_55 (and .def_657 (and .def_217 (and .loc.13 (and .loc.12 (and .def_610 (and .loc.8 .def_517)))))))))))))))))))) (and (and .def_839 .def_841) .def_844)) (and (or I1_27 (and (= .x.1267 (store D_27 P1_0 (store .def_144 (+ (* 4 M_27) (+ Q1_0 (+ (* 4 (* Q_27 X_27)) (* 4 (* U_27 (* Q_27 T_27)))))) (+ .def_137 .def_179)))) .def_851)) (and .def_238 (and .def_206 (and .def_203 (and .def_200 (and .def_197 (and .def_195 (and .def_192 (and .def_190 (and .def_187 (and .def_184 (and .def_51 (and .def_55 (and .def_657 (and .def_247 (and .loc.13 (and .loc.11 (and .def_610 (and .loc.8 (and .loc.6 (and .def_115 (and .def_113 (and .def_110 (and .def_107 (and .def_104 (and .def_355 .def_457))))))))))))))))))))))))))) (and (and (and (and (and .def_888 .def_890) .def_893) .def_896) .def_899) .def_902)) (and (or I1_27 (and (and (= .x.1273 0) (= .x.1269 0)) (= J1_0 (store J1_13 0 0)))) (and (or .x.1298 (and (and (and (and (and (and (and (and (and (and .def_450 (and (and .def_452 (and (and (and (and (and .def_321 (and (and (not (<= .x.1264 .x.1295)) (not (<= .x.1264 .x.1279))) (not (<= .x.1264 .x.1286)))) (= .x.1277 0)) (= .x.1280 1800)) (= .x.1282 1000)) (= .x.1283 1500))) (= .x.1296 0))) (not (= .x.1279 0))) (not (= .x.1295 0))) (not (= .x.1286 0))) (= .x.1293 0)) (= (select J1_0 .x.1279) 0)) (= (select .def_951 .x.1295) 0)) (= (select .def_950 .x.1286) 0)) (= .x.1271 (store (store (store H_27 .x.1279 (* 4 (* .x.1283 (* .x.1280 .x.1282)))) .x.1286 (* 4 (* .x.1283 (* .x.1280 .x.1282)))) .x.1295 (* 4 (* .x.1283 (* .x.1280 .x.1282)))))) (= .x.1265 (store .def_951 .x.1295 1)))) (and .def_238 (and .def_192 (and .def_51 (and .def_55 (and .def_217 (and .loc.14 (and .loc.13 (and .loc.12 (and .loc.9 (and .loc.8 (and .loc.6 (and .def_115 (and .def_104 (and .def_101 .def_841))))))))))))))))) (and .def_238 (and .def_206 (and .def_203 (and .def_200 (and .def_197 (and .def_195 (and .def_192 (and .def_190 (and .def_187 (and .def_184 (and .def_55 (and .def_247 (and .def_217 (and .loc.14 (and .loc.13 (and .def_326 (and .loc.9 (and .loc.7 .def_1007))))))))))))))))))) (and .def_534 (and .def_238 (and .def_206 (and .def_203 (and .def_200 (and .def_197 (and .def_195 (and .def_192 (and .def_190 (and .def_187 (and .def_184 (and .def_55 (and .def_247 (and .def_217 (and .loc.14 (and .loc.13 (and .def_326 (and .loc.9 (and .loc.7 .def_1046)))))))))))))))))))) (and .def_323 (and .def_238 (and .def_206 (and .def_203 (and .def_200 (and .def_197 (and .def_195 (and .def_192 (and .def_190 (and .def_187 (and .def_184 (and .def_55 (and .def_657 (and .def_247 (and .loc.13 (and .loc.11 (and .def_610 (and .loc.8 .def_1082))))))))))))))))))) (and .def_383 (and .def_242 (and .def_240 (and .def_238 (and .def_206 (and .def_203 (and .def_200 (and .def_197 (and .def_195 (and .def_192 (and .def_190 (and .def_187 (and .def_184 (and .def_55 (and .loc.14 (and .loc.12 (and .loc.11 (and .def_326 (and .loc.9 (and .loc.7 (and .def_115 (and .def_844 (and .def_113 (and .def_110 (and .def_107 (and .def_104 (and .def_839 .def_1037)))))))))))))))))))))))))))) (and .def_483 (and .def_242 (and .def_240 (and .def_238 (and .def_206 (and .def_203 (and .def_200 (and .def_197 (and .def_195 (and .def_192 (and .def_190 (and .def_187 (and .def_184 (and .def_55 (and .loc.14 (and .loc.12 (and .loc.11 (and .loc.9 (and .loc.8 (and .loc.7 (and .def_115 (and .def_844 (and .def_113 (and .def_110 (and .def_107 (and .def_104 (and .def_839 .def_1072)))))))))))))))))))))))))))) (and .def_240 (and .def_238 (and .def_206 (and .def_203 (and .def_200 (and .def_197 (and .def_195 (and .def_192 (and .def_190 (and .def_187 (and .def_184 (and .def_51 (and .def_55 (and .def_217 (and .loc.14 (and .loc.12 (and .def_326 (and .loc.9 .def_1007))))))))))))))))))) (and .def_570 (and .def_240 (and .def_238 (and .def_206 (and .def_203 (and .def_200 (and .def_197 (and .def_195 (and .def_192 (and .def_190 (and .def_187 (and .def_184 (and .def_51 (and .def_55 (and .def_217 (and .loc.14 (and .loc.12 (and .def_326 (and .loc.9 .def_1046)))))))))))))))))))) (and (or I1_27 (and .def_851 (= .x.1267 (store .def_1198 M1_2 (store (select .def_1198 M1_2) (+ (* 4 M_27) (+ K1_8 (+ (* 4 (* Q_27 X_27)) (* 4 (* U_27 (* Q_27 T_27)))))) O_27))))) (and .def_240 (and .def_238 (and .def_206 (and .def_203 (and .def_200 (and .def_197 (and .def_195 (and .def_192 (and .def_190 (and .def_187 (and .def_184 (and .def_51 (and .def_55 (and .def_247 (and .loc.14 (and .loc.11 (and .def_326 (and .loc.9 (and .loc.6 (and .def_115 (and .def_844 (and .def_113 (and .def_110 (and .def_107 (and .def_104 (and .def_839 (and .def_355 (and .def_328 (and .def_902 (and .def_899 (and .def_101 (and .def_888 .def_896)))))))))))))))))))))))))))))))))) (and .def_323 (and .def_240 (and .def_238 (and .def_206 (and .def_203 (and .def_200 (and .def_197 (and .def_195 (and .def_192 (and .def_190 (and .def_187 (and .def_184 (and .def_55 (and .def_247 (and .loc.14 (and .loc.11 (and .def_326 (and .loc.9 .def_1082)))))))))))))))))))))))))))))))))))))))))))))))))))))))))))))))))))))))))))))))))))))))))))))))))))))))))))))) (state |.x.1264| |.x.1265| |.x.1266| |.x.1267| |.x.1268| |.x.1269| |.x.1270| |.x.1271| |.x.1272| |.x.1273| |.x.1274| |.x.1275| |.x.1276| |.x.1277| |.x.1278| |.x.1279| |.x.1280| |.x.1281| |.x.1282| |.x.1283| |.x.1284| |.x.1285| |.x.1286| |.x.1287| |.x.1288| |.x.1289| |.x.1290| |.x.1291| |.x.1292| |.x.1293| |.x.1294| |.x.1295| |.x.1296| |.x.1297| |.x.1298| |.loc.11| |.loc.12| |.loc.13| |.loc.14| |.loc.15| |.xtv.1|))))
(assert (forall ((|A_27| Int) (|J1_13| (Array Int Int)) (|C_27| (Array Int Int)) (|D_27| (Array Int Int)) (|E_27| (Array Int Int)) (|F_27| Int) (|G_27| Int) (|H_27| (Array Int Int)) (|I_27| (Array Int Int)) (|J_27| Int) (|K_27| Int) (|L_27| Int) (|M_27| Int) (|K1_8| Int) (|O_27| Int) (|L1_5| Int) (|Q_27| Int) (|R_27| Int) (|S_27| Int) (|T_27| Int) (|U_27| Int) (|V_27| Int) (|M1_2| Int) (|X_27| Int) (|N1_0| Int) (|Z_27| Int) (|A1_27| Int) (|B1_27| Int) (|C1_27| Int) (|O1_0| Int) (|E1_27| Int) (|P1_0| Int) (|Q1_0| Int) (|H1_27| Int) (|I1_27| Bool) (|.loc.6| Bool) (|.loc.7| Bool) (|.loc.8| Bool) (|.loc.9| Bool) (|.loc.10| Bool) (|J1_0| (Array Int Int)) (|.x.1274| Int) (|.x.1272| (Array Int Int)) (|.x.1270| Int) (|.x.1268| (Array Int Int)) (|.x.1264| Int) (|.x.1266| (Array Int Int)) (|.x.1285| Int) (|.x.1288| Int) (|.x.1298| Bool) (|.x.1265| (Array Int Int)) (|.x.1281| Int) (|.x.1290| Int) (|.x.1291| Int) (|.x.1292| Int) (|.x.1294| Int) (|.x.1277| Int) (|.x.1279| Int) (|.x.1286| Int) (|.x.1293| Int) (|.x.1295| Int) (|.x.1296| Int) (|.x.1276| Int) (|.loc.13| Bool) (|.loc.15| Bool) (|.loc.11| Bool) (|.loc.12| Bool) (|.x.1284| Int) (|.x.1287| Int) (|.loc.14| Bool) (|.x.1289| Int) (|.x.1267| (Array Int Int)) (|.x.1297| Int) (|.x.1271| (Array Int Int)) (|.x.1269| Int) (|.x.1273| Int) (|.x.1275| Int) (|.x.1278| Int) (|.x.1280| Int) (|.x.1282| Int) (|.x.1283| Int) (|.xtv.1| (Array Int Int))) (=> (state |A_27| |J1_13| |C_27| |D_27| |E_27| |F_27| |G_27| |H_27| |I_27| |J_27| |K_27| |L_27| |M_27| |K1_8| |O_27| |L1_5| |Q_27| |R_27| |S_27| |T_27| |U_27| |V_27| |M1_2| |X_27| |N1_0| |Z_27| |A1_27| |B1_27| |C1_27| |O1_0| |E1_27| |P1_0| |Q1_0| |H1_27| |I1_27| |.loc.6| |.loc.7| |.loc.8| |.loc.9| |.loc.10| |J1_0|) (not (and I1_27 (and .loc.10 (and (not .loc.9) (and .loc.8 (and (not .loc.7) (not .loc.6))))))))))
(check-sat)
